73334 121618 144903 144904 145670 157257 192774 221029 223633 223636 226903 228514 251844 268631 268632 290048 290064 290153 290198 627168 1170191 1223628 1224083 1224176 2942325 3910170 5062187 5062188 6162453 6391426 6593749 6593751 6593752 6593753 6593754 6593755 6593771 6593772 7433584 9721029 9730495 9743306 9783734 

